
Gurobi 8.1.0 (win64, Python) logging started 01/28/21 13:07:20


Gurobi 8.1.0 (win64, Python) logging started 01/28/21 13:07:27


Gurobi 8.1.0 (win64, Python) logging started 01/28/21 13:07:42


Gurobi 8.1.0 (win64, Python) logging started 01/28/21 13:10:22


Gurobi 8.1.0 (win64, Python) logging started 01/28/21 13:10:44


Gurobi 8.1.0 (win64, Python) logging started 01/28/21 13:11:05


Gurobi 8.1.0 (win64, Python) logging started 01/28/21 13:11:11


Gurobi 8.1.0 (win64, Python) logging started 01/28/21 13:11:43

